1 1 -2 0
1 1 -3 0
1 -1 4 0
1 -5 -6 0
1 5 7 0
1 -8 -9 0
1 8 -10 0
1 -8 2 0
1 -8 -11 0
1 -8 -12 0
1 -8 7 0
1 13 10 0
1 13 -14 0
1 13 2 0
1 -13 15 0
1 3 16 0
1 3 17 0
1 3 -18 0
1 18 -19 0
1 -18 16 0
1 -18 13 0
1 -18 5 0
1 -18 8 0
1 -18 1 0
1 -2 5 0
1 2 -20 0
1 -2 -1 0
1 -7 -19 0
1 -7 13 0
1 -7 -2 0
1 7 21 0
1 7 -22 0
1 7 -8 0
1 -7 23 0
1 24 -10 0
1 24 11 0
1 24 25 0
1 -26 9 0
1 -26 -15 0
1 26 -11 0
1 26 -18 0
1 17 -27 0
1 -17 -3 0
1 17 -28 0
1 17 -29 0
1 16 -3 0
1 -16 -15 0
1 -16 17 0
1 -16 -28 0
1 -16 -29 0
1 16 18 0
1 11 30 0
1 -11 -16 0
1 -11 13 0
1 -11 -31 0
1 11 -24 0
1 10 26 0
1 -10 -13 0
1 -10 -32 0
1 -10 11 0
1 -10 -17 0
1 15 19 0
1 15 16 0
1 -15 -13 0
1 -15 -33 0
1 -15 34 0
1 -15 21 0
1 9 -19 0
1 9 -26 0
1 -9 -15 0
1 9 -21 0
1 9 17 0
1 9 24 0
1 -32 -11 0
1 32 -29 0
1 -30 10 0
1 30 35 0
1 -30 27 0
1 -30 -28 0
1 -31 -10 0
1 -31 27 0
1 -31 -33 0
1 31 -28 0
1 36 -37 0
1 36 31 0
1 36 28 0
1 -36 -29 0
1 29 -38 0
1 29 31 0
1 29 -32 0
1 -29 -17 0
1 29 39 0
1 29 -40 0
1 27 -17 0
1 -28 36 0
1 28 30 0
1 -28 38 0
1 -28 41 0
1 -35 -16 0
1 -35 -42 0
1 -35 -43 0
1 -35 -41 0
1 35 -31 0
1 35 -32 0
1 -35 17 0
1 35 -28 0
1 -4 -44 0
1 -4 -45 0
1 4 -1 0
1 6 -44 0
1 -6 46 0
1 -12 -44 0
1 -12 45 0
1 12 -47 0
1 -12 -48 0
1 -12 8 0
1 -14 -44 0
1 14 -49 0
1 14 -48 0
1 45 50 0
1 45 -14 0
1 -45 22 0
1 45 12 0
1 46 -51 0
1 -46 6 0
1 46 -22 0
1 46 -25 0
1 46 4 0
1 -44 -52 0
1 44 14 0
1 -44 -6 0
1 -44 47 0
1 -44 -12 0
1 -44 -4 0
1 47 -44 0
1 -47 6 0
1 47 -53 0
1 25 -2 0
1 -25 54 0
1 25 -24 0
1 50 -45 0
1 -50 -2 0
1 -50 -46 0
1 50 7 0
1 -22 -45 0
1 22 -49 0
1 -22 -55 0
1 22 2 0
1 22 46 0
1 -22 -48 0
1 -22 -17 0
1 -22 56 0
1 51 -54 0
1 51 -45 0
1 -51 -16 0
1 51 -57 0
1 51 -2 0
1 -51 48 0
1 51 58 0
1 55 51 0
1 55 59 0
1 55 -33 0
1 -55 -22 0
1 -55 -12 0
1 -54 -19 0
1 54 50 0
1 54 -14 0
1 -54 -21 0
1 -54 -60 0
1 49 14 0
1 49 61 0
1 -48 -49 0
1 -48 -50 0
1 48 -14 0
1 48 -22 0
1 21 -19 0
1 21 2 0
1 21 3 0
1 21 15 0
1 -21 32 0
1 21 54 0
1 -21 -56 0
1 21 -18 0
1 -19 30 0
1 19 -62 0
1 19 -2 0
1 -19 -3 0
1 -19 15 0
1 19 21 0
1 19 -18 0
1 -33 -63 0
1 -33 -9 0
1 33 -37 0
1 33 57 0
1 33 -20 0
1 33 31 0
1 33 -56 0
1 -33 23 0
1 -37 -36 0
1 37 9 0
1 -37 55 0
1 -37 -20 0
1 -37 -64 0
1 37 54 0
1 37 -58 0
1 37 56 0
1 -57 -65 0
1 57 -66 0
1 57 -33 0
1 57 -22 0
1 57 67 0
1 -57 -68 0
1 56 37 0
1 -56 51 0
1 56 41 0
1 56 21 0
1 -56 69 0
1 62 37 0
1 62 65 0
1 62 -70 0
1 62 -33 0
1 -62 22 0
1 58 -65 0
1 58 -22 0
1 58 71 0
1 -41 -9 0
1 -41 10 0
1 -41 57 0
1 41 -20 0
1 -41 23 0
1 -41 -68 0
1 -68 -63 0
1 -68 57 0
1 68 64 0
1 -68 -15 0
1 -68 11 0
1 -68 23 0
1 -43 -63 0
1 43 35 0
1 -43 57 0
1 -69 -57 0
1 -69 -43 0
1 69 20 0
1 69 -72 0
1 69 -28 0
1 69 23 0
1 -69 73 0
1 64 -63 0
1 64 -38 0
1 64 -41 0
1 64 3 0
1 -64 -74 0
1 64 -75 0
1 64 69 0
1 64 68 0
1 63 76 0
1 63 -43 0
1 63 41 0
1 63 18 0
1 -63 74 0
1 -20 -37 0
1 20 -43 0
1 -20 41 0
1 20 33 0
1 -20 -74 0
1 -20 67 0
1 -20 68 0
1 -23 37 0
1 23 77 0
1 23 65 0
1 -23 -67 0
1 -23 -68 0
1 38 -35 0
1 38 -78 0
1 38 27 0
1 38 65 0
1 38 28 0
1 38 -40 0
1 40 -63 0
1 40 -27 0
1 -40 38 0
1 76 42 0
1 -76 -79 0
1 -75 -80 0
1 75 78 0
1 -75 76 0
1 -75 -64 0
1 -72 43 0
1 -72 -81 0
1 78 -82 0
1 -78 -38 0
1 78 -81 0
1 78 72 0
1 78 40 0
1 -78 69 0
1 34 -83 0
1 -34 84 0
1 34 -76 0
1 34 15 0
1 -34 85 0
1 34 74 0
1 34 75 0
1 -34 -40 0
1 -34 -69 0
1 -80 -9 0
1 -80 -84 0
1 -80 -76 0
1 80 38 0
1 80 -75 0
1 -86 -87 0
1 -87 42 0
1 -87 86 0
1 87 88 0
1 -82 78 0
1 82 88 0
1 -81 82 0
1 -81 72 0
1 -88 81 0
1 88 87 0
1 -88 39 0
1 79 -82 0
1 -79 42 0
1 -79 81 0
1 -79 -87 0
1 42 82 0
1 -42 -86 0
1 61 -89 0
1 -61 41 0
1 -61 -90 0
1 -61 -48 0
1 61 54 0
1 91 -49 0
1 -91 62 0
1 91 -61 0
1 91 90 0
1 70 -52 0
1 70 92 0
1 -70 -59 0
1 70 90 0
1 70 60 0
1 73 -92 0
1 -73 -59 0
1 -73 -70 0
1 -73 -90 0
1 -73 -93 0
1 73 60 0
1 73 69 0
1 -89 -77 0
1 -89 -94 0
1 -90 -91 0
1 90 -77 0
1 90 -70 0
1 90 73 0
1 53 -70 0
1 -53 47 0
1 53 73 0
1 -65 -57 0
1 -65 -20 0
1 -65 58 0
1 -67 -92 0
1 67 59 0
1 -67 62 0
1 -67 -56 0
1 67 20 0
1 -67 90 0
1 67 -93 0
1 67 23 0
1 77 -89 0
1 -77 -71 0
1 77 95 0
1 77 -66 0
1 -77 -20 0
1 77 -90 0
1 77 60 0
1 -94 -89 0
1 94 -92 0
1 -94 59 0
1 -94 75 0
1 -94 96 0
1 -94 -23 0
1 59 -60 0
1 59 55 0
1 59 -77 0
1 -59 -74 0
1 60 -83 0
1 60 -59 0
1 -60 77 0
1 60 85 0
1 60 54 0
1 60 -73 0
1 92 -49 0
1 92 -65 0
1 -92 -70 0
1 -92 -94 0
1 93 -92 0
1 93 70 0
1 -93 -48 0
1 93 67 0
1 -93 -73 0
1 -84 -63 0
1 -84 80 0
1 -84 86 0
1 -84 95 0
1 -84 66 0
1 -84 -20 0
1 -84 64 0
1 74 80 0
1 -74 59 0
1 74 66 0
1 -74 -20 0
1 74 64 0
1 74 34 0
1 -74 71 0
1 -74 23 0
1 -83 80 0
1 83 -66 0
1 -83 34 0
1 83 85 0
1 83 96 0
1 85 95 0
1 85 81 0
1 85 -71 0
1 -85 -96 0
1 -96 -83 0
1 96 -84 0
1 96 -66 0
1 -96 -85 0
1 96 -56 0
1 -95 -84 0
1 -95 -62 0
1 -95 85 0
1 -95 -74 0
1 95 94 0
1 71 -83 0
1 -71 -77 0
1 71 -95 0
1 71 -94 0
